Minimize
    cAX + cAY + cAZ + cBX + cBY + cBZ + cCX + cCY + cCZ + cDX + cDY + cDZ + cX1 + cY1 + cZ1 + cX2 + cY2 + cZ2 + cX3 + cY3 + cZ3 + cX4 + cY4 + cZ4
Subject to
    demA1 : xAX1 + xAY1 + xAZ1 = 40
    demA2 : xAX2 + xAY2 + xAZ2 = 30
    demA3 : xAX3 + xAY3 + xAZ3 = 20
    demA4 : xAX4 + xAY4 + xAZ4 = 10
    demB1 : xBX1 + xBY1 + xBZ1 = 10
    demB2 : xBX2 + xBY2 + xBZ2 = 60
    demB3 : xBX3 + xBY3 + xBZ3 = 20
    demB4 : xBX4 + xBY4 + xBZ4 = 40
    demC1 : xCX1 + xCY1 + xCZ1 = 20
    demC2 : xCX2 + xCY2 + xCZ2 = 20
    demC3 : xCX3 + xCY3 + xCZ3 = 20
    demC4 : xCX4 + xCY4 + xCZ4 = 20
    demD1 : xDX1 + xDY1 + xDZ1 = 70
    demD2 : xDX2 + xDY2 + xDZ2 = 30
    demD3 : xDX3 + xDY3 + xDZ3 = 50
    demD4 : xDX4 + xDY4 + xDZ4 = 10
    capAX : xAX1 + xAX2 + xAX3 + xAX4 - cAX <= 0
    capAY : xAY1 + xAY2 + xAY3 + xAY4 - cAY <= 0
    capAZ : xAZ1 + xAZ2 + xAZ3 + xAZ4 - cAZ <= 0
    capBX : xBX1 + xBX2 + xBX3 + xBX4 - cBX <= 0
    capBY : xBY1 + xBY2 + xBY3 + xBY4 - cBY <= 0
    capBZ : xBZ1 + xBZ2 + xBZ3 + xBZ4 - cBZ <= 0
    capCX : xCX1 + xCX2 + xCX3 + xCX4 - cCX <= 0
    capCY : xCY1 + xCY2 + xCY3 + xCY4 - cCY <= 0
    capCZ : xCZ1 + xCZ2 + xCZ3 + xCZ4 - cCZ <= 0
    capDX : xDX1 + xDX2 + xDX3 + xDX4 - cDX <= 0
    capDY : xDY1 + xDY2 + xDY3 + xDY4 - cDY <= 0
    capDZ : xDZ1 + xDZ2 + xDZ3 + xDZ4 - cDZ <= 0
    capX1 : xAX1 + xBX1 + xCX1 + xDX1 - cX1 <= 0
    capY1 : xAY1 + xBY1 + xCY1 + xDY1 - cY1 <= 0
    capZ1 : xAZ1 + xBZ1 + xCZ1 + xDZ1 - cZ1 <= 0
    capX2 : xAX2 + xBX2 + xCX2 + xDX2 - cX2 <= 0
    capY2 : xAY2 + xBY2 + xCY2 + xDY2 - cY2 <= 0
    capZ2 : xAZ2 + xBZ2 + xCZ2 + xDZ2 - cZ2 <= 0
    capX3 : xAX3 + xBX3 + xCX3 + xDX3 - cX3 <= 0
    capY3 : xAY3 + xBY3 + xCY3 + xDY3 - cY3 <= 0
    capZ3 : xAZ3 + xBZ3 + xCZ3 + xDZ3 - cZ3 <= 0
    capX4 : xAX4 + xBX4 + xCX4 + xDX4 - cX4 <= 0
    capY4 : xAY4 + xBY4 + xCY4 + xDY4 - cY4 <= 0
    capZ4 : xAZ4 + xBZ4 + xCZ4 + xDZ4 - cZ4 <= 0
Bounds
    xAX1 >= 0
    xBX1 >= 0
    xCX1 >= 0
    xDX1 >= 0
    xAY1 >= 0
    xBY1 >= 0
    xCY1 >= 0
    xDY1 >= 0
    xAZ1 >= 0
    xBZ1 >= 0
    xCZ1 >= 0
    xDZ1 >= 0
    xAX2 >= 0
    xBX2 >= 0
    xCX2 >= 0
    xDX2 >= 0
    xAY2 >= 0
    xBY2 >= 0
    xCY2 >= 0
    xDY2 >= 0
    xAZ2 >= 0
    xBZ2 >= 0
    xCZ2 >= 0
    xDZ2 >= 0
    xAX3 >= 0
    xBX3 >= 0
    xCX3 >= 0
    xDX3 >= 0
    xAY3 >= 0
    xBY3 >= 0
    xCY3 >= 0
    xDY3 >= 0
    xAZ3 >= 0
    xBZ3 >= 0
    xCZ3 >= 0
    xDZ3 >= 0
    xAX4 >= 0
    xBX4 >= 0
    xCX4 >= 0
    xDX4 >= 0
    xAY4 >= 0
    xBY4 >= 0
    xCY4 >= 0
    xDY4 >= 0
    xAZ4 >= 0
    xBZ4 >= 0
    xCZ4 >= 0
    xDZ4 >= 0
    cAX >= 0
    cAY >= 0
    cAZ >= 0
    cBX >= 0
    cBY >= 0
    cBZ >= 0
    cCX >= 0
    cCY >= 0
    cCZ >= 0
    cDX >= 0
    cDY >= 0
    cDZ >= 0
    cX1 >= 0
    cY1 >= 0
    cZ1 >= 0
    cX2 >= 0
    cY2 >= 0
    cZ2 >= 0
    cX3 >= 0
    cY3 >= 0
    cZ3 >= 0
    cX4 >= 0
    cY4 >= 0
    cZ4 >= 0
End